Version identifier: 22.1.0.0 | 2022-03-09 | 1a383f8ce
CPXPARAM_Threads                                 1
CPXPARAM_MIP_Strategy_VariableSelect             3
CPXPARAM_TimeLimit                               600
Tried aggregator 1 time.
Reduced MIP has 2425 rows, 14000 columns, and 112865 nonzeros.
Reduced MIP has 12000 binaries, 2000 generals, 0 SOSs, and 0 indicators.
Presolve time = 0.06 sec. (44.08 ticks)
Found incumbent of value 2002.000000 after 0.17 sec. (110.37 ticks)
Tried aggregator 1 time.
Detecting symmetries...
Reduced MIP has 2425 rows, 14000 columns, and 112865 nonzeros.
Reduced MIP has 12000 binaries, 2000 generals, 0 SOSs, and 0 indicators.
Presolve time = 0.08 sec. (54.69 ticks)
Probing time = 0.01 sec. (10.83 ticks)
Clique table members: 403.
MIP emphasis: balance optimality and feasibility.
MIP search method: dynamic search.
Parallel mode: none, using 1 thread.
Root relaxation solution time = 1.87 sec. (1928.02 ticks)

        Nodes                                         Cuts/
   Node  Left     Objective  IInf  Best Integer    Best Bound    ItCnt     Gap

*     0+    0                         2002.0000        0.0000           100.00%
      0     0        0.0000  2188     2002.0000        0.0000     6458  100.00%
      0     0        0.0000   540     2002.0000   ZeroHalf: 1     7218  100.00%
      0     0        0.0000   877     2002.0000      Cuts: 61     9889  100.00%
*     0+    0                            7.0000        0.0000           100.00%
*     0+    0                            6.0000        0.0000           100.00%
      0     0  -1.00000e+75     0        6.0000        0.0000     9889  100.00%
Detecting symmetries...
      0     2        0.0000   433        6.0000        0.0000     9889  100.00%
Elapsed time = 35.43 sec. (38609.11 ticks, tree = 0.01 MB, solutions = 3)
      1     3        0.0000   636        6.0000        0.0000    20864  100.00%
      2     4        0.0000   517        6.0000        0.0000    25338  100.00%
      3     5        0.0000   498        6.0000        0.0000    30476  100.00%
      4     6        0.0000   504        6.0000        0.0000    35072  100.00%
      5     7        0.0000   509        6.0000        0.0000    35818  100.00%
      6     8        0.0000   714        6.0000        0.0000    58051  100.00%
      7     9        0.0000   512        6.0000        0.0000    67979  100.00%
      8    10        0.0000   563        6.0000        0.0000    70123  100.00%
      9    11        0.0000   518        6.0000        0.0000    70165  100.00%
     10    12        0.0000   490        6.0000        0.0000    76538  100.00%
Elapsed time = 62.35 sec. (66350.27 ticks, tree = 0.05 MB, solutions = 3)
     11    13        0.0000  1336        6.0000        0.0000    79286  100.00%
     13    15        0.0000  1867        6.0000        0.0000    82365  100.00%
     15    17        0.0000   523        6.0000        0.0000    87700  100.00%
     16    18        0.0000   533        6.0000        0.0000    91235  100.00%
     18    20        0.0000  1263        6.0000        0.0000    96751  100.00%
     20    22        0.0000   496        6.0000        0.0000    99283  100.00%
     21    23        0.0000   456        6.0000        0.0000   104926  100.00%
     22    24        0.0000  1660        6.0000        0.0000   107481  100.00%
     24    26        0.0000  1596        6.0000        0.0000   110985  100.00%
     26    28        0.0000   449        6.0000        0.0000   113308  100.00%
Elapsed time = 82.12 sec. (87479.78 ticks, tree = 0.17 MB, solutions = 3)
     27    29        0.0000   564        6.0000        0.0000   118978  100.00%
     29    31        0.0000   646        6.0000        0.0000   122148  100.00%
     31    33        0.0000   491        6.0000        0.0000   122357  100.00%
     33    35        0.0000   380        6.0000        0.0000   131443  100.00%
     34    36        0.0000   831        6.0000        0.0000   136926  100.00%
     35    37        0.0000   359        6.0000        0.0000   138683  100.00%
     36    38        0.0000   659        6.0000        0.0000   144124  100.00%
     38    40        0.0000   362        6.0000        0.0000   145479  100.00%
     40    42        0.0000   492        6.0000        0.0000   150166  100.00%
     41    43        0.0000   354        6.0000        0.0000   153445  100.00%
Elapsed time = 101.36 sec. (107408.98 ticks, tree = 0.48 MB, solutions = 3)
     42    44        0.0000   301        6.0000        0.0000   158367  100.00%
     43    45        0.0000   364        6.0000        0.0000   165941  100.00%
     44    46        0.0000   309        6.0000        0.0000   167224  100.00%
     45    47        0.0000   412        6.0000        0.0000   171553  100.00%
     46    48        0.0000   310        6.0000        0.0000   173673  100.00%
     47    49        0.0000   423        6.0000        0.0000   180616  100.00%
     48    50        0.0000   283        6.0000        0.0000   196441  100.00%
     49    51        0.0000   256        6.0000        0.0000   202070  100.00%
     50    52        0.0000   433        6.0000        0.0000   208742  100.00%
     51    53        0.0000   310        6.0000        0.0000   213906  100.00%
Elapsed time = 134.83 sec. (143052.75 ticks, tree = 0.61 MB, solutions = 3)
     53    55        0.0000   297        6.0000        0.0000   218842  100.00%
     54    56        0.0000   536        6.0000        0.0000   222175  100.00%
     55    57        0.0000   291        6.0000        0.0000   225044  100.00%
     56    58        0.0000   386        6.0000        0.0000   233012  100.00%
     57    59        0.0000   308        6.0000        0.0000   234174  100.00%
     58    60        0.0000   411        6.0000        0.0000   238243  100.00%
     59    61        0.0000   280        6.0000        0.0000   243168  100.00%
     61    63        0.0000   290        6.0000        0.0000   249196  100.00%
     62    64        0.0000   710        6.0000        0.0000   258282  100.00%
     64    66        0.0000   394        6.0000        0.0000   264285  100.00%
Elapsed time = 158.57 sec. (168110.42 ticks, tree = 0.89 MB, solutions = 3)
     65    67        0.0000  1034        6.0000        0.0000   266856  100.00%
     66    68        0.0000   993        6.0000        0.0000   272871  100.00%
     67    69        0.0000   740        6.0000        0.0000   273673  100.00%
     69    71        0.0000   748        6.0000        0.0000   278017  100.00%
     70    72        0.0000   692        6.0000        0.0000   281718  100.00%
     71    73       -0.0000  1527        6.0000        0.0000   283517  100.00%
     72    74        0.0000  1190        6.0000        0.0000   284932  100.00%
     73    75        0.0000  1721        6.0000        0.0000   287383  100.00%
     75    77        0.0000  1059        6.0000        0.0000   292162  100.00%
     76    78        0.0000  1246        6.0000        0.0000   293961  100.00%
Elapsed time = 177.58 sec. (188219.80 ticks, tree = 1.13 MB, solutions = 3)
     78    80       -0.0000  1524        6.0000        0.0000   296298  100.00%
     80    82        0.0000  1510        6.0000        0.0000   299242  100.00%
     82    84        0.0000  1777        6.0000        0.0000   301209  100.00%
     84    86        0.0000  1312        6.0000        0.0000   301832  100.00%
     85    87       -0.0000  1492        6.0000        0.0000   303524  100.00%
     86    88        0.0000  1549        6.0000        0.0000   304047  100.00%
     89    91       -0.0000  1489        6.0000        0.0000   306197  100.00%
     91    93        0.0000  1500        6.0000        0.0000   306508  100.00%
     93    95        0.0000  1512        6.0000        0.0000   307722  100.00%
     95    97        0.0000  1478        6.0000        0.0000   308310  100.00%
Elapsed time = 191.47 sec. (203748.09 ticks, tree = 1.60 MB, solutions = 3)
     96    98       -0.0000  1542        6.0000        0.0000   310288  100.00%
     98   100        0.0000  1664        6.0000        0.0000   311518  100.00%
    100   102        0.0000  1733        6.0000        0.0000   313057  100.00%
    102   104        0.0000  1076        6.0000        0.0000   323442  100.00%
    104   106        0.0189  1339        6.0000        0.0000   333539  100.00%
    105   107        0.0000   932        6.0000        0.0000   341503  100.00%
    106   108        0.0000   728        6.0000        0.0000   353304  100.00%
    108   110        0.0000   696        6.0000        0.0000   360020  100.00%
    109   111       -0.0000   870        6.0000        0.0000   362815  100.00%
    110   112        0.0000   710        6.0000        0.0000   367498  100.00%
Elapsed time = 222.30 sec. (237055.79 ticks, tree = 1.92 MB, solutions = 3)
    111   113        0.0000   885        6.0000        0.0000   370821  100.00%
    113   115        0.0000   746        6.0000        0.0000   372941  100.00%
    114   116        0.0000  1447        6.0000        0.0000   376454  100.00%
    115   117        0.0000   979        6.0000        0.0000   378439  100.00%
    116   118        0.0000   794        6.0000        0.0000   380622  100.00%
    118   120       -0.0000  1186        6.0000        0.0000   385109  100.00%
    120   122       -0.0000  1161        6.0000        0.0000   389236  100.00%
    122   124        0.0000  1107        6.0000        0.0000   390478  100.00%
    123   125        0.0000   981        6.0000        0.0000   392945  100.00%
    125   127       -0.0000   995        6.0000        0.0000   394232  100.00%
Elapsed time = 237.51 sec. (254047.41 ticks, tree = 2.27 MB, solutions = 3)
    127   129       -0.0000  1302        6.0000        0.0000   398189  100.00%
    128   130        0.0000   984        6.0000        0.0000   398561  100.00%
    130   132       -0.0000   862        6.0000        0.0000   406909  100.00%
    132   134        0.0000   782        6.0000        0.0000   407790  100.00%
    134   136       -0.0000   701        6.0000        0.0000   412256  100.00%
    135   137       -0.0000   692        6.0000        0.0000   415570  100.00%
    137   139        0.0000   657        6.0000        0.0000   417576  100.00%
    138   140        0.0645   830        6.0000        0.0000   424466  100.00%
    140   142        0.0968   836        6.0000        0.0000   431799  100.00%
    141   143        0.0312   817        6.0000        0.0000   441861  100.00%
Elapsed time = 264.49 sec. (281953.62 ticks, tree = 2.63 MB, solutions = 3)
    144   146       -0.0000   527        6.0000        0.0000   448877  100.00%
    146   148        0.0312   779        6.0000        0.0000   458525  100.00%
    150   152       -0.0000   586        6.0000        0.0000   465474  100.00%
    154   156        0.0000   563        6.0000        0.0000   470334  100.00%
    158   160       -0.0000   584        6.0000        0.0000   477172  100.00%
    161   163       -0.0000   594        6.0000        0.0000   484954  100.00%
    163   165        0.0000   476        6.0000        0.0000   492501  100.00%
    168   170        0.0476   577        6.0000        0.0000   502827  100.00%
    170   172        0.0476   553        6.0000        0.0000   513298  100.00%
    174   176        0.0952   633        6.0000        0.0000   524442  100.00%
Elapsed time = 310.79 sec. (329434.96 ticks, tree = 3.39 MB, solutions = 3)
    178   180        0.0000   311        6.0000        0.0000   533715  100.00%
    180   182        0.1429   508        6.0000        0.0000   545572  100.00%
    184   186        0.1429   494        6.0000        0.0000   551727  100.00%
    190   192        0.1304   555        6.0000        0.0000   556230  100.00%
    195   197        0.0833   633        6.0000        0.0000   561458  100.00%
    200   202        1.0000   622        6.0000        0.0000   566707  100.00%
    206   208        0.0870   543        6.0000        0.0000   570950  100.00%
    212   214        0.1429   528        6.0000        0.0000   577351  100.00%
    219   221        0.1429   523        6.0000        0.0000   581406  100.00%
    225   227        0.1429   551        6.0000        0.0000   587300  100.00%
Elapsed time = 356.36 sec. (374803.57 ticks, tree = 4.63 MB, solutions = 3)
    232   234        1.0556   693        6.0000        0.0000   594204  100.00%
    239   241        1.0000   444        6.0000        0.0000   600303  100.00%
    244   246        1.0000   439        6.0000        0.0000   604672  100.00%
    249   251        1.0000   384        6.0000        0.0000   611899  100.00%
    254   256        1.0000   398        6.0000        0.0000   621251  100.00%
    259   261        1.0000   279        6.0000        0.0000   628057  100.00%
    264   266        1.1111   503        6.0000        0.0000   635428  100.00%
    269   271        1.0833   513        6.0000        0.0000   642259  100.00%
    274   276        1.0000   403        6.0000        0.0000   649389  100.00%
    280   282        1.0000   349        6.0000        0.0000   654378  100.00%
Elapsed time = 402.91 sec. (420042.29 ticks, tree = 5.98 MB, solutions = 3)
    285   287        1.1667   340        6.0000        0.0000   663283  100.00%
    289   291        1.0000   311        6.0000        0.0000   670788  100.00%
    294   296        1.1250   396        6.0000        0.0000   679660  100.00%
    300   302        1.5417   450        6.0000        0.0000   686971  100.00%
    305   307        1.0000   344        6.0000        0.0000   693527  100.00%
    310   312        1.0000   285        6.0000        0.0000   700337  100.00%
    317   319        1.0000   299        6.0000        0.0000   707446  100.00%
    321   323        1.2222   492        6.0000        0.0000   715531  100.00%
    326   328        1.0000   280        6.0000        0.0000   722763  100.00%
    332   334        1.0000   354        6.0000        0.0000   728648  100.00%
Elapsed time = 446.27 sec. (462483.73 ticks, tree = 7.25 MB, solutions = 3)
    339   341        2.0000   270        6.0000        0.0000   733119  100.00%
    347   349        2.0000   246        6.0000        0.0000   739258  100.00%
    354   356        2.2222   322        6.0000        0.0000   747436  100.00%
    362   364        2.0000   207        6.0000        0.0000   752943  100.00%
    368   370        3.0000   278        6.0000        0.0000   759746  100.00%
    375   377        3.0000   212        6.0000        0.0000   767142  100.00%
    383   385        3.0000   115        6.0000        0.0000   773165  100.00%
    390   392        3.2500   207        6.0000        0.0000   779307  100.00%
    400   402        3.5000   128        6.0000        0.0000   784662  100.00%
    410   410        4.0000   174        6.0000        0.0000   789512  100.00%
Elapsed time = 490.03 sec. (504444.46 ticks, tree = 9.15 MB, solutions = 3)
    420   418        4.0000   168        6.0000        0.0000   794726  100.00%
    432   426        4.2727   372        6.0000        0.0000   799351  100.00%
*   440+  404                            5.0000        0.0000           100.00%
    443   403        4.0000   192        5.0000        0.0000   804360  100.00%
    448   404        0.0000   574        5.0000        0.0000   809925  100.00%
    450   406       -0.0000   606        5.0000        0.0000   814657  100.00%
    453   409        0.0625   797        5.0000        0.0000   829018  100.00%
    457   413       -0.0000   523        5.0000        0.0000   834313  100.00%
    459   415        0.0000   495        5.0000        0.0000   842031  100.00%
    461   417       -0.0000   529        5.0000        0.0000   849382  100.00%
    465   421        0.0000   504        5.0000        0.0000   853699  100.00%
Elapsed time = 533.95 sec. (547664.47 ticks, tree = 9.40 MB, solutions = 4)
    468   424        0.0968   718        5.0000        0.0000   865415  100.00%
    471   427        0.0000   341        5.0000        0.0000   873301  100.00%
    472   428        0.0313   701        5.0000        0.0000   882266  100.00%
    476   432        0.0000   400        5.0000        0.0000   891340  100.00%
    477   433        0.0476   480        5.0000        0.0000   901740  100.00%
    481   437        0.0000   429        5.0000        0.0000   908335  100.00%
    483   439        0.0208   610        5.0000        0.0000   916995  100.00%
    486   442        0.1429   680        5.0000        0.0000   928050  100.00%
    489   445        0.1765   553        5.0000        0.0000   937973  100.00%
    493   449        0.0323   656        5.0000        0.0000   949154  100.00%
Elapsed time = 583.87 sec. (598494.10 ticks, tree = 10.07 MB, solutions = 4)
    495   451       -0.0000   337        5.0000        0.0000   956626  100.00%
    498   454        0.0625   719        5.0000        0.0000   965691  100.00%
Starting limited solution polishing.

Zero-half cuts applied:  11
Gomory fractional cuts applied:  1

Root node processing (before b&c):
  Real time             =   35.30 sec. (38468.00 ticks)
Sequential b&c:
  Real time             =  564.71 sec. (575688.18 ticks)
                          ------------
Total (root+branch&cut) =  600.01 sec. (614156.18 ticks)
Primal number of violations:	5
Dual number of violations:	0
Status:	Feasible
Time:	600.05
Sequence:
	23
	7
	13
	11
	12
	5
	16
	8
	20
	3
	20
	5
	18
	5
	21
	2
	20
	7
	16
	7
	20
	2
	20
	7
	16
	5
	21
	2
	21
	5
	16
	5
	21
	0
	20
	11
	12
	5
	7
	16
	0
	21
	9
	12
	7
	17
	7
	12
	9
	21
	0
	21
	5
	16
	7
	6
	18
	5
	12
	11
	12
	7
	23
	0
	20
	7
	18
	5
	13
	9
	21
	1
	23
	6
	12
	9
	21
	1
	23
	5
	12
	11
	21
	0
	23
	5
	12
	9
	21
	1
	23
	5
	13
	11
	14
	5
	9
	12
	7
	11
	13
	5
	23
	1
	5
	19
	5
	5
	14
	9
	12
	7
	23
	0
	21
	9
	1
	20
	9
	15
	5
	16
	5
	7
	18
	5
	20
	0
	11
	12
	7
	23
	0
	21
	9
	12
	7
	20
	3
	20
	5
	19
	5
	14
	9
	12
	7
	16
	7
	12
	10
	20
	1
	21
	9
	12
	5
	24
	1
	20
	9
	12
	7
	23
	0
	21
	9
	12
	5
	22
	3
	20
	5
	12
	11
	20
	1
	20
	9
	12
	5
	14
	21
	10
	12
	5
	23
	1
	20
	11
	12
	5
	23
	1
	22
	9
	12
	5
	14
	6
	23
	1
	20
	7
	12
	9
	13
	1
	20
	7
	16
	6
	5
	18
	7
	20
	0
	20
	7
	18
	5
	12
	5
	18
	7
	13
	9
	20
	1
	23
	7
	13
	9
	7
	12
	9
	20
	1
	22
	5
	16
	5
	21
	4
	20
	5
	16
	7
	7
	16
	6
	20
	3
	21
	5
	16
	5
	13
	7
	23
	1
	20
	9
	14
	6
	18
	5
	12
	9
	21
	0
	21
	5
	16
	5
	21
	3
	20
	6
	16
	7
	5
	18
	6
	20
	11
	12
	5
	14
	9
	20
	7
	16
	8
	20
	9
	14
	5
	20
	14
	9
	14
	6
	23
	1
	20
	7
	16
	6
	12
	11
	20
	1
	23
	5
	15
	9
	20
	1
	23
	5
	14
	9
	21
	0
	20
	7
	16
	5
	20
	3
	20
	1
	23
	5
	13
	9
	21
	1
	23
	5
	12
	9
	22
	1
	23
	5
	12
	11
	20
	1
	23
	5
	13
	9
	21
	1
	23
	5
	13
	11
	20
	1
	23
	5
	14
	10
	12
	5
	21
	3
	20
	5
	16
	8
	20
	3
	20
	5
	18
	5
	20
	2
	21
	7
	16
	5
	20
	1
	23
	6
	12
	9
	21
	1
	23
	6
	12
	11
	21
